COLUMNS

passenger_count
pickup_ID
dropoff_ID
request_time_sec
pickup_district
dropoff_district
LDuals
IDuals
vehicle_ID
pick_position
drop_position

REQUESTS_INFO
2      771       698       30748     290       189       224       224       44        1         2         
2      412       594       30781     52        131       151       151       80        1         2         
1      1010      710       30799     290       131       159       159       104       1         4         
2      923       959       30778     290       291       231       231       156       1         2         
2      463       480       30802     168       52        112       112       176       1         3         
1      928       558       30767     290       189       235.5     235.5     202       1         3         
2      336       505       30807     277       52        201.5     201.5     266       1         2         
3      270       648       30803     127       189       152       152       289       1         3         
2      958       946       30809     291       290       121       121       290       1         4         
3      374       288       30782     119       127       227       227       307       1         2         
1      485       673       30791     189       189       130       130       310       1         3         
3      397       393       30799     168       52        155       155       314       1         2         
1      922       626       30807     50        189       193.5     193.5     323       1         3         
1      337       504       30797     277       52        188.5     188.5     361       1         2         
1      848       416       30807     291       100       159       159       439       1         3         
1      619       1088      30798     131       291       99        99        460       1         3         
1      480       116       30793     52        9         141       141       480       1         3         
1      499       285       30762     52        299       122       122       500       1         2         
2      510       488       30785     199       199       134       134       533       1         2         
3      336       505       30807     277       52        201.5     201.5     561       1         2         
1      772       64        30782     290       98        149       149       588       1         3         
3      608       559       30788     189       189       136       136       589       1         2         
1      480       597       30809     52        131       156       156       613       1         2         
1      835       905       30781     290       290       155       155       633       1         3         
2      416       694       30785     100       189       155       155       656       1         3         
1      860       651       30809     290       189       143.5     143.5     681       1         3         
1      1044      648       30806     291       189       118       118       688       1         3         
3      463       480       30802     168       52        112       112       693       1         3         
1      980       117       30766     291       286       194       194       731       1         2         
1      895       555       30785     291       199       135       135       765       1         3         
3      802       484       30789     291       189       152       152       766       1         3         
1      644       640       30793     131       131       121       121       768       1         2         
2      666       503       30802     131       52        153       153       827       1         3         
1      913       717       30807     291       189       129       129       851       1         3         
1      841       1073      30694     290       50        281.5     281.5     865       1         3         
1      889       1027      30754     290       50        261       261       865       2         4         
3      374       288       30782     119       127       227       227       874       1         2         
2      395       627       30796     100       189       176       176       904       1         3         
1      834       669       30795     290       280       169       169       912       1         3         
1      907       925       30746     290       290       239.5     239.5     926       1         2         
1      984       604       30786     291       189       188       188       943       1         4         
1      818       738       30809     290       189       170.5     170.5     974       1         3         
1      1003      1168      30664     291       291       265       265       987       1         2         
1      950       783       30786     290       50        191       191       1007      1         4         
2      770       655       30777     290       189       201       201       1011      1         2         
3      841       789       30659     290       290       356       356       1056      1         2         
1      926       984       30732     290       291       222       222       1066      1         3         
1      1003      670       30808     291       280       121       121       1092      1         2         
2      926       376       30801     290       168       190.5     190.5     1095      1         2         
1      474       409       30744     52        52        150       150       1112      1         2         
1      818       573       30731     290       189       291       291       1122      1         2         
2      951       377       30788     290       168       207       207       1140      1         2         
3      924       672       30808     290       189       175.5     175.5     1141      1         2         
3      951       377       30788     290       168       207       207       1146      1         3         
1      951       443       30800     290       168       180       180       1146      2         4         
2      863       749       30797     290       290       206.5     206.5     1202      1         2         
1      418       532       30753     168       199       207       207       1219      1         3         
1      886       674       30766     290       189       266.5     266.5     1223      1         2         
1      881       674       30778     290       189       201.5     201.5     1293      1         3         
1      889       415       30807     290       100       170.5     170.5     1341      1         3         
1      951       678       30761     290       290       241       241       1385      1         3         
1      482       552       30763     189       189       132       132       1461      1         2         
1      795       412       30805     290       52        156.5     156.5     1517      1         5         
1      839       904       30797     290       290       169.5     169.5     1767      1         3         
1      894       834       30802     291       290       117       117       1776      1         2         
1      270       604       30797     127       189       158       158       1778      1         2         
3      748       1218      30741     290       84        221       221       1801      1         2         
2      287       544       30761     299       52        157       157       1823      1         2         
3      175       172       30805     266       286       90        90        1839      1         2         
2      396       578       30703     119       189       265       265       1919      1         2         
2      970       858       30762     290       290       211       211       1975      1         2         
2      930       580       30810     999       189       0         0         0         0         0         
3      930       580       30810     999       189       0         0         0         0         0         
1      99        511       30810     286       199       0         0         0         0         0         
1      388       134       30810     299       9         0         0         0         0         0         
1      325       118       30810     299       286       0         0         0         0         0         
2      398       604       30811     168       189       0         0         0         0         0         
3      398       604       30811     168       189       0         0         0         0         0         
1      662       924       30811     131       290       0         0         0         0         0         
1      916       575       30811     291       189       0         0         0         0         0         
1      416       556       30811     100       199       0         0         0         0         0         
1      667       35        30812     131       98        0         0         0         0         0         
1      858       946       30812     290       290       0         0         0         0         0         
2      863       48        30812     290       98        0         0         0         0         0         
2      499       399       30812     52        168       0         0         0         0         0         
1      1005      829       30812     50        50        0         0         0         0         0         
1      894       891       30812     291       291       0         0         0         0         0         
1      556       643       30812     199       131       0         0         0         0         0         
1      816       440       30813     290       168       0         0         0         0         0         
1      859       720       30813     290       290       0         0         0         0         0         
1      555       603       30813     199       189       0         0         0         0         0         
2      499       801       30813     52        291       0         0         0         0         0         
3      557       247       30813     189       266       0         0         0         0         0         
3      557       247       30813     189       266       0         0         0         0         0         
1      747       581       30813     290       189       0         0         0         0         0         
3      1128      1207      30814     291       192       0         0         0         0         0         
1      312       604       30814     87        189       0         0         0         0         0         
1      369       304       30814     52        299       0         0         0         0         0         
1      649       600       30814     189       280       0         0         0         0         0         
1      655       228       30814     189       266       0         0         0         0         0         
1      527       628       30814     52        189       0         0         0         0         0         
1      723       811       30814     290       290       0         0         0         0         0         
1      529       508       30814     189       199       0         0         0         0         0         
3      875       946       30814     291       290       0         0         0         0         0         
3      875       946       30814     291       290       0         0         0         0         0         
3      1128      1207      30814     291       192       0         0         0         0         0         
2      531       475       30815     189       52        0         0         0         0         0         
1      217       99        30815     87        286       0         0         0         0         0         
1      553       439       30815     189       189       0         0         0         0         0         
1      1098      593       30815     84        52        0         0         0         0         0         
1      991       79        30815     290       98        0         0         0         0         0         
1      742       904       30815     290       290       0         0         0         0         0         
1      398       581       30816     168       189       0         0         0         0         0         
1      717       779       30816     189       131       0         0         0         0         0         
1      906       1032      30816     290       84        0         0         0         0         0         
4      476       600       30816     52        280       0         0         0         0         0         
1      420       553       30816     168       189       0         0         0         0         0         
1      748       601       30817     290       189       0         0         0         0         0         
1      349       511       30817     127       199       0         0         0         0         0         
1      915       1208      30817     291       192       0         0         0         0         0         
1      904       532       30817     290       199       0         0         0         0         0         
1      969       881       30817     290       290       0         0         0         0         0         
3      669       616       30817     280       131       0         0         0         0         0         
1      840       373       30817     290       119       0         0         0         0         0         
1      533       415       30817     199       100       0         0         0         0         0         
1      463       581       30818     168       189       0         0         0         0         0         
1      413       669       30818     52        280       0         0         0         0         0         
1      1025      946       30818     291       290       0         0         0         0         0         
1      1107      739       30818     291       189       0         0         0         0         0         
1      372       504       30818     119       52        0         0         0         0         0         
1      959       1168      30818     291       291       0         0         0         0         0         
2      482       414       30818     189       100       0         0         0         0         0         
1      597       695       30818     131       189       0         0         0         0         0         
3      482       414       30818     189       100       0         0         0         0         0         
2      287       674       30819     299       189       0         0         0         0         0         
3      287       674       30819     299       189       0         0         0         0         0         
1      925       116       30819     290       9         0         0         0         0         0         
1      601       718       30819     189       189       0         0         0         0         0         
1      557       11        30819     189       999       0         0         0         0         0         
1      654       629       30820     189       189       0         0         0         0         0         
1      626       673       30820     189       189       0         0         0         0         0         
1      488       557       30820     199       189       0         0         0         0         0         
1      433       415       30820     52        100       0         0         0         0         0         
1      716       528       30820     189       52        0         0         0         0         0         
1      906       772       30820     290       290       0         0         0         0         0         
2      1069      1207      30820     291       192       0         0         0         0         0         
2      813       948       30820     290       290       0         0         0         0         0         
3      813       948       30820     290       290       0         0         0         0         0         
1      735       571       30820     131       52        0         0         0         0         0         
3      716       732       30821     189       131       0         0         0         0         0         
3      716       732       30821     189       131       0         0         0         0         0         
2      747       910       30821     290       290       0         0         0         0         0         
3      747       910       30821     290       290       0         0         0         0         0         
1      984       696       30821     291       189       0         0         0         0         0         
1      510       535       30821     199       189       0         0         0         0         0         
1      608       334       30821     189       119       0         0         0         0         0         
3      355       10        30821     119       98        0         0         0         0         0         
1      662       1003      30821     131       291       0         0         0         0         0         
1      1086      1010      30822     291       290       0         0         0         0         0         
1      438       551       30822     100       189       0         0         0         0         0         
1      629       748       30822     189       290       0         0         0         0         0         
1      915       980       30822     291       291       0         0         0         0         0         
1      1131      21        30823     291       98        0         0         0         0         0         
1      462       673       30823     189       189       0         0         0         0         0         
2      949       949       30823     290       290       0         0         0         0         0         
3      949       949       30823     290       290       0         0         0         0         0         
1      625       727       30824     189       290       0         0         0         0         0         
1      1065      895       30824     291       291       0         0         0         0         0         
1      835       581       30825     290       189       0         0         0         0         0         
1      971       814       30825     290       290       0         0         0         0         0         
1      793       217       30825     290       87        0         0         0         0         0         
1      276       368       30826     87        299       0         0         0         0         0         
1      532       439       30826     199       189       0         0         0         0         0         
1      947       782       30826     290       291       0         0         0         0         0         
2      333       531       30826     119       189       0         0         0         0         0         
2      156       522       30826     286       52        0         0         0         0         0         
2      250       116       30827     127       9         0         0         0         0         0         
1      325       695       30827     299       189       0         0         0         0         0         
1      1031      1055      30827     50        84        0         0         0         0         0         
1      452       189       30827     52        286       0         0         0         0         0         
1      603       737       30827     189       189       0         0         0         0         0         
2      885       649       30828     290       189       0         0         0         0         0         
3      676       138       30828     189       57        0         0         0         0         0         
3      676       138       30828     189       57        0         0         0         0         0         
1      896       651       30828     291       189       0         0         0         0         0         
1      597       624       30829     131       189       0         0         0         0         0         
1      336       693       30829     277       280       0         0         0         0         0         
2      847       719       30829     291       189       0         0         0         0         0         
1      769       417       30829     290       100       0         0         0         0         0         
1      771       651       30829     290       189       0         0         0         0         0         
1      154       628       30829     286       189       0         0         0         0         0         
2      20        239       30829     98        87        0         0         0         0         0         
1      801       507       30829     291       189       0         0         0         0         0         
3      509       230       30830     199       266       0         0         0         0         0         
1      795       701       30830     290       290       0         0         0         0         0         
1      1044      702       30830     291       290       0         0         0         0         0         
1      338       728       30830     277       290       0         0         0         0         0         
3      596       376       30830     131       168       0         0         0         0         0         
3      596       376       30830     131       168       0         0         0         0         0         
1      311       557       30830     87        189       0         0         0         0         0         
1      398       622       30831     168       280       0         0         0         0         0         
1      476       555       30831     52        199       0         0         0         0         0         
1      702       533       30831     290       199       0         0         0         0         0         
1      991       695       30831     290       189       0         0         0         0         0         
2      691       731       30831     131       131       0         0         0         0         0         
1      527       396       30831     52        119       0         0         0         0         0         
1      481       695       30831     189       189       0         0         0         0         0         
1      600       551       30832     280       189       0         0         0         0         0         
1      389       779       30832     299       131       0         0         0         0         0         
1      480       629       30832     52        189       0         0         0         0         0         
1      350       209       30832     127       266       0         0         0         0         0         
1      745       738       30833     290       189       0         0         0         0         0         
1      1109      732       30833     291       131       0         0         0         0         0         
1      700       1088      30833     290       291       0         0         0         0         0         
1      1308      972       30833     129       290       0         0         0         0         0         
2      482       214       30833     189       207       0         0         0         0         0         
2      605       737       30834     189       189       0         0         0         0         0         
2      354       484       30834     119       189       0         0         0         0         0         
1      485       695       30834     189       189       0         0         0         0         0         
1      947       691       30834     290       131       0         0         0         0         0         
1      630       436       30834     189       100       0         0         0         0         0         
1      500       624       30834     52        189       0         0         0         0         0         
1      643       849       30834     131       291       0         0         0         0         0         
1      555       504       30835     199       52        0         0         0         0         0         
1      325       1023      30835     299       291       0         0         0         0         0         
1      668       117       30835     280       286       0         0         0         0         0         
1      551       528       30835     189       52        0         0         0         0         0         
1      723       948       30835     290       290       0         0         0         0         0         
1      526       417       30835     52        100       0         0         0         0         0         
1      782       923       30836     291       290       0         0         0         0         0         
1      1087      848       30836     291       291       0         0         0         0         0         
1      694       1217      30837     189       84        0         0         0         0         0         
1      668       812       30837     280       290       0         0         0         0         0         
1      604       904       30837     189       290       0         0         0         0         0         
1      946       1217      30837     290       84        0         0         0         0         0         
1      523       558       30837     52        189       0         0         0         0         0         
3      768       760       30838     290       291       0         0         0         0         0         
2      768       760       30838     290       291       0         0         0         0         0         
1      813       946       30838     290       290       0         0         0         0         0         
1      9         138       30838     98        57        0         0         0         0         0         
1      700       838       30838     290       290       0         0         0         0         0         
4      213       219       30838     266       87        0         0         0         0         0         
1      457       410       30838     52        52        0         0         0         0         0         
1      875       557       30838     291       189       0         0         0         0         0         
1      597       627       30838     131       189       0         0         0         0         0         
1      464       575       30838     168       189       0         0         0         0         0         
1      499       737       30839     52        189       0         0         0         0         0         
2      475       408       30839     52        299       0         0         0         0         0         
1      630       557       30839     189       189       0         0         0         0         0         
1      850       556       30839     291       199       0         0         0         0         0         
1      883       651       30839     290       189       0         0         0         0         0         
1      21        116       30839     98        9         0         0         0         0         0         
1      463       527       30839     168       52        0         0         0         0         0         
